90 15266167
28 62 75 11 22 59 74 7 68 2 6 29 18 54 53 64 44 60 32 49 89 21 9 58 5 30 10 80 69 55 88 35 34 70 65 45 71 27 78 50 46 90 57 63 12 41 39 76 61 84 77 15 26 3 13 56 42 40 82 17 33 8 36 51 81 1 66 24 37 87 86 14 20 43 73 85 31 16 25 48 4 79 83 19 72 52 67 47 23 38 
